&CONTROL
  calculation = 'vc-relax'
  outdir = './out/'
  prefix = 'aiida'
  pseudo_dir = './pseudo/'
  verbosity = 'high'
/
&SYSTEM
  ecutrho =   2.4000000000d+02
  ecutwfc =   3.0000000000d+01
  ibrav = 0
  nat = 2
  ntyp = 1
/
&ELECTRONS
/
&IONS
/
&CELL
  press =   1.0000000000d-04
/
ATOMIC_SPECIES
Si     28.085 Si.pbe-n-rrkjus_psl.1.0.0.UPF
ATOMIC_POSITIONS angstrom
Si          -0.0000000000      -0.0000000000      -0.0000000000
Si           1.4029824578       1.4029824578       1.4029824578
K_POINTS automatic
2 2 2 0 0 0
CELL_PARAMETERS angstrom
      0.0000000000       2.8059649154       2.8059649154
      2.8059649154       0.0000000000       2.8059649154
      2.8059649154       2.8059649154       0.0000000000
