&PROJWFC
  degauss =   1.0000000000d-02
  deltae =   1.0000000000d-02
  emax = 1
  emin = -1
  kresolveddos = .false.
  lbinary_data = .false.
  lsym = .true.
  lwrite_overlaps = .false.
  ngauss = 0
  outdir = './out/'
  plotboxes = .false.
  prefix = 'aiida'
  tdosinboxes = .false.
/
