&CONTROL
  calculation = 'relax'
  etot_conv_thr =   2.0000000000d-05
  forc_conv_thr =   1.0000000000d-04
  max_seconds =   2.7360000000d+04
  outdir = './out/'
  prefix = 'aiida'
  pseudo_dir = './pseudo/'
  restart_mode = 'from_scratch'
  tprnfor = .true.
  tstress = .true.
  verbosity = 'high'
/
&SYSTEM
  degauss =   1.0000000000d-02
  ecutrho =   2.8000000000d+02
  ecutwfc =   3.5000000000d+01
  ibrav = 0
  nat = 2
  ntyp = 1
  occupations = 'smearing'
  smearing = 'cold'
/
&ELECTRONS
  conv_thr =   4.0000000000d-12
  electron_maxstep = 80
  mixing_beta =   4.0000000000d-01
/
&IONS
  ion_dynamics = 'damp'
/
ATOMIC_SPECIES
As     74.9216 As.pbe-n-rrkjus_psl.0.2.UPF
ATOMIC_POSITIONS angstrom
As          -0.0000000000      -0.0000000000       2.4554464117 
As           0.0000000000      -0.0000000000       8.3984031692 
ATOMIC_FORCES
As           0.0000000000       0.0000000000       0.0018466578
As           0.0000000000       0.0000000000      -0.0018466578
K_POINTS automatic
14 14 14 0 0 0
CELL_PARAMETERS angstrom
      1.9045175742       1.0995737341       3.6179498603
     -1.9045175742       1.0995737341       3.6179498603
      0.0000000000      -2.1991474683       3.6179498603
