&BANDS
  filband = 'bands.dat'
  filp = 'momentum_operator.dat'
  outdir = './out/'
  prefix = 'aiida'
/
