 &control
    calculation = 'vc-relax'
    restart_mode='from_scratch',
    prefix='silicon',
    tstress = .true.
    tprnfor = .true.
    pseudo_dir = '.',
    outdir='.'
    verbosity='high'
 /
 &system
    ibrav=  2,
    celldm(1) =10.20,
    nat=  2,
    ntyp= 1,
    ecutrho =240.0,
    ecutwfc =30.0,
 /
 &electrons
    diagonalization='david'
    mixing_mode = 'plain'
    mixing_beta = 0.7
    conv_thr =  1.0d-8
 /
 &ions
 /
 &cell
   press=0.0
   press_conv_thr=0.1
 /
ATOMIC_SPECIES
 Si  28.086  Si.pbe-rrkj.UPF
ATOMIC_POSITIONS crystal
 Si 0.00 0.00 0.00
 Si 0.25 0.25 0.25
K_POINTS (automatic)
 4 4 4 0 0 0
