&PROJWFC
  deltae =   2.0000000000d+00
  emax =   1.1558089541d+00
  emin =  -8.8441910459d+00
  kresolveddos = .true.
  lbinary_data = .false.
  lsym = .true.
  lwrite_overlaps = .false.
  outdir = './out/'
  prefix = 'aiida'
/
