&PROJWFC
  degauss =   5.0000000000d-03
  deltae =   5.0000000000d-01
  emax =   7.5907955380d-01
  emin =  -9.2409204462d+00
  irmax(1,1) = 5
  irmax(1,2) = 5
  irmax(1,3) = 5
  irmax(1,4) = 5
  irmax(1,5) = 5
  irmax(2,1) = 5
  irmax(2,2) = 5
  irmax(2,3) = 5
  irmax(2,4) = 5
  irmax(2,5) = 5
  irmax(3,1) = 100
  irmax(3,2) = 110
  irmax(3,3) = 120
  irmax(3,4) = 130
  irmax(3,5) = 140
  irmin(1,1) = -5
  irmin(1,2) = -5
  irmin(1,3) = -5
  irmin(1,4) = -5
  irmin(1,5) = -5
  irmin(2,1) = -5
  irmin(2,2) = -5
  irmin(2,3) = -5
  irmin(2,4) = -5
  irmin(2,5) = -5
  irmin(3,1) = 90
  irmin(3,2) = 100
  irmin(3,3) = 110
  irmin(3,4) = 120
  irmin(3,5) = 130
  kresolveddos = .false.
  lbinary_data = .false.
  lsym = .true.
  lwrite_overlaps = .false.
  n_proj_boxes = 5
  ngauss = -1
  outdir = './out/'
  prefix = 'aiida'
  tdosinboxes = .true.
/
