&INPUTPH
  fildyn = 'DYN_MAT/dynamical-matrix-'
  ldisp = .true.
  outdir = './out/'
  prefix = 'aiida'
  qplot = .true.
  verbosity = 'high'
/
8
      0.0000000000       0.0000000000       0.0000000000  1
     -0.3535533906       0.3535533906       0.3535533906  1
      0.3535533906      -0.3535533906       0.3535533906  1
      0.0000000000       0.0000000000       0.7071067812  1
      0.3535533906       0.3535533906      -0.3535533906  1
      0.0000000000       0.7071067812       0.0000000000  1
      0.7071067812       0.0000000000       0.0000000000  1
      0.3535533906       0.3535533906       0.3535533906  1
