&INPUTPH
  fildyn = 'DYN_MAT/dynamical-matrix-.xml'
  iverbosity = 1
  ldisp = .true.
  nq1 = 2
  nq2 = 2
  nq3 = 2
  outdir = './out/'
  prefix = 'aiida'
/
