&INPUTPH
  fildyn = 'DYN_MAT/dynamical-matrix-'
  ldisp = .true.
  nq1 = 2
  nq2 = 2
  nq3 = 2
  outdir = './out/'
  prefix = 'aiida'
  verbosity = 'high'
/
