&CONTROL
  calculation = 'scf'
  max_seconds =   1.7100000000d+03
  outdir = './out/'
  prefix = 'aiida'
  pseudo_dir = './pseudo/'
  restart_mode = 'from_scratch'
  verbosity = 'high'
/
&SYSTEM
  ecutrho =   2.4000000000d+02
  ecutwfc =   3.0000000000d+01
  ibrav = 0
  nat = 2
  nbnd = 8
  ntyp = 1
/
&ELECTRONS
/
ATOMIC_SPECIES
Si     28.0855 Si.pbe-n-kjpaw_psl.1.0.0.UPF
ATOMIC_POSITIONS angstrom
Si           0.0000000000       0.0000000000       0.0000000000
Si           1.3575000000       1.3575000000       1.3575000000
K_POINTS automatic
2 2 2 0 0 0
CELL_PARAMETERS angstrom
      2.7150000000       2.7150000000       0.0000000000
      2.7150000000       0.0000000000       2.7150000000
      0.0000000000       2.7150000000       2.7150000000
