&PROJWFC
  deltae =   2.0000000000d+00
  kresolveddos = .false.
  lbinary_data = .false.
  lsym = .true.
  lwrite_overlaps = .false.
  outdir = './out/'
  plotboxes = .false.
  prefix = 'aiida'
  tdosinboxes = .false.
/
