&INPUTPP
  outdir = './out/'
  overwrite_prefix = .true.
  prefix = 'aiida'
/
